(set-logic QF_NRA)
(declare-fun skoX () Real)
(declare-fun pi () Real)
(declare-fun skoY () Real)
(assert (and (<= (+ (* (- 1440) (* skoX skoX)) (* 420 (* skoX skoX skoX skoX)) (* (- 32) (* skoX skoX skoX skoX skoX skoX)) (* skoX skoX skoX skoX skoX skoX skoX skoX)) 0) (and (not (<= (+ (* (- 1) skoX) skoY) 0)) (and (<= (* (- 10) skoX) (- 1)) (and (not (<= (* (- 10000000) pi) (- 31415927))) (and (not (<= (* 5000000 pi) 15707963)) (<= (+ (* (- 5) pi) (* 10 skoY)) (- 2))))))))
(set-info :status sat)
(check-sat)
